Route #1: 108 27 1 46 63 79 117
Route #2: 62 85 30 55 36 109 118 94 95
Route #3: 101 77 65 40 22 47 68 25
Route #4: 93 26
Route #5: 58 80 4 107 41 7 64
Route #6: 119 71 104 29 20
Route #7: 69 98 72
Route #8: 67 32 10
Route #9: 21 91 54 121
Route #10: 84 53 39 8
Route #11: 45 18
Route #12: 113 33 5
Route #13: 120 75
Route #14: 37 12
Route #15: 35 103
Route #16: 48 57 100
Route #17: 111 86
Route #18: 61 83 122
Route #19: 73 110 76
Route #20: 99 112
Route #21: 96 38
Route #22: 60 90 102
Route #23: 3 31
Route #24: 123 42 81 16 43 106
Route #25: 9 19 11 114 87 92 74
Route #26: 24 49 14 97 44 52
Route #27: 78 124 2 34 6 70 59 28 13
Route #28: 23 66 116 50 15 17
Route #29: 82 56
Route #30: 51 105 89 88 115
Cost 55542
